************************************************************************
file with basedata            : md366_.bas
initial value random generator: 1165992146
************************************************************************
projects                      :  1
jobs (incl. supersource/sink ):  22
horizon                       :  160
RESOURCES
  - renewable                 :  2   R
  - nonrenewable              :  2   N
  - doubly constrained        :  0   D
************************************************************************
PROJECT INFORMATION:
pronr.  #jobs rel.date duedate tardcost  MPM-Time
    1     20      0       25        3       25
************************************************************************
PRECEDENCE RELATIONS:
jobnr.    #modes  #successors   successors
   1        1          3           2   3   4
   2        3          3           5  14  19
   3        3          3           6   8  17
   4        3          3           9  11  15
   5        3          3           7  16  20
   6        3          3          10  14  15
   7        3          1          11
   8        3          2          13  19
   9        3          2          12  17
  10        3          2          16  18
  11        3          1          17
  12        3          2          13  18
  13        3          2          14  20
  14        3          1          16
  15        3          2          18  20
  16        3          1          21
  17        3          1          21
  18        3          2          19  21
  19        3          1          22
  20        3          1          22
  21        3          1          22
  22        1          0        
************************************************************************
REQUESTS/DURATIONS:
jobnr. mode duration  R 1  R 2  N 1  N 2
------------------------------------------------------------------------
  1      1     0       0    0    0    0
  2      1     1       9    9    9    8
         2     1       8    8   10    8
         3     6       5    7    6    1
  3      1     2       7    4   10   10
         2     4       6    2   10    8
         3     4       5    4    9    8
  4      1     2       7    3    5    4
         2     7       7    3    2    3
         3     7       5    2    4    3
  5      1     3      10    6   10    8
         2     7       9    5    5    6
         3    10       9    4    3    4
  6      1     2       6   10    8    7
         2     3       6    7    6    6
         3     6       5    6    2    5
  7      1     2       7    1   10    9
         2     9       6    1   10    8
         3    10       4    1   10    7
  8      1     2       7   10    6   10
         2     4       6   10    3   10
         3    10       5    9    2    9
  9      1     5       9    5    6    5
         2     8       7    5    3    4
         3     8       8    5    2    4
 10      1     4      10   10    9    5
         2     7       7   10    9    5
         3     8       7    9    8    4
 11      1     2       3    5    4    8
         2     7       3    5    2    3
         3     8       3    3    2    3
 12      1     4       1    6    9    6
         2     5       1    3    6    5
         3     5       1    2    4    6
 13      1     2       6    4    5    6
         2     7       5    2    5    5
         3     9       5    1    5    4
 14      1     5       4    6    4    8
         2    10       3    5    3    8
         3    10       4    5    2    7
 15      1     3       5   10    9    8
         2     6       3   10    9    7
         3     8       2    9    8    3
 16      1     6      10    9    5    4
         2     8       9    9    3    4
         3    10       9    9    3    3
 17      1     5       6    6    6   10
         2     8       4    5    5   10
         3     9       4    5    2   10
 18      1     3       9    1   10    9
         2     6       8    1    7    7
         3    10       7    1    4    5
 19      1     2       3    7    7    8
         2     7       3    5    7    4
         3     8       3    4    5    1
 20      1     4       8    6    3   10
         2     4       8    9    2    8
         3     5       7    1    2    6
 21      1     1       1    8   10    4
         2     5       1    8    9    4
         3     9       1    7    7    4
 22      1     0       0    0    0    0
************************************************************************
RESOURCEAVAILABILITIES:
  R 1  R 2  N 1  N 2
   21   20  117  122
************************************************************************
MAXIMAL LAGS:
from  to  type  delay
    1   22   ES      0
    1    2   ES      0
    2   22   ES      0
    1    3   ES      0
    3   22   ES      0
    1    4   ES      0
    4   22   ES      0
    1    5   ES      0
    5   22   ES      0
    1    6   ES      0
    6   22   ES      0
    1    7   ES      0
    7   22   ES      0
    1    8   ES      0
    8   22   ES      0
    1    9   ES      0
    9   22   ES      0
    1   10   ES      0
   10   22   ES      0
    1   11   ES      0
   11   22   ES      0
    1   12   ES      0
   12   22   ES      0
    1   13   ES      0
   13   22   ES      0
    1   14   ES      0
   14   22   ES      0
    1   15   ES      0
   15   22   ES      0
    1   16   ES      0
   16   22   ES      0
    1   17   ES      0
   17   22   ES      0
    1   18   ES      0
   18   22   ES      0
    1   19   ES      0
   19   22   ES      0
    1   20   ES      0
   20   22   ES      0
    1   21   ES      0
   21   22   ES      0
    1   22   ES      0
    2    5   SS     12
    2    5   SE     10
    5    2   SE      0
    2    5   ES      0
    2    5   EE      4
    2   14   SS     -8
    2   14   SE    -11
    2   14   ES     -3
    2   14   EE      4
    2   19   SS     -9
    2   19   SE     10
    2   19   ES    -11
    2   19   EE      6
    3    6   SS     -5
    3    6   SE    -11
    3    6   ES     -1
    3    6   EE     -3
    3    8   SS      4
    3    8   SE     -3
    3    8   ES     10
    3    8   EE      2
    3   17   SS     -6
    3   17   SE      4
    3   17   ES     -1
    3   17   EE      2
    4    9   SS     12
    4    9   SE      3
    4    9   ES      7
    4    9   EE      2
    4   11   SS     -6
    4   11   SE      6
    4   11   ES      4
    4   11   EE     11
    4   15   SS     -8
    4   15   SE     -4
    4   15   ES     10
    4   15   EE     -2
    5    7   SS      8
    5    7   SE      9
    5    7   ES     -2
    5    7   EE     -5
    5   16   SS      4
    5   16   SE     -9
    5   16   ES     -1
    5   16   EE    -10
    5   20   SS      5
    5   20   SE     -7
    5   20   ES      3
    5   20   EE     -8
    6   10   SS      9
    6   10   SE     -6
    6   10   ES     12
    6   10   EE      4
    6   14   SS     -8
    6   14   SE      1
    6   14   ES     -4
    6   14   EE     -8
    6   15   SS      6
    6   15   SE     -1
    6   15   ES     -9
    6   15   EE      4
    7   11   SS     -2
    7   11   SE     -7
    7   11   ES     -1
    7   11   EE     -1
    8   13   SS      8
    8   13   SE      2
    8   13   ES      9
    8   13   EE      1
    8   19   SS     12
    8   19   SE      4
    8   19   ES      4
    8   19   EE      9
    9   12   SS     11
    9   12   SE    -10
    9   12   ES     -2
    9   12   EE     -2
    9   17   SS      6
    9   17   SE    -11
    9   17   ES     -5
    9   17   EE    -11
   10   16   SS      4
   10   16   SE     -9
   10   16   ES      6
   10   16   EE      1
   10   18   SS     11
   10   18   SE     11
   10   18   ES      7
   10   18   EE     -2
   11   17   SS     -3
   11   17   SE     -4
   11   17   ES     11
   11   17   EE      4
   12   13   SS      2
   12   13   SE      0
   12   13   ES     -9
   12   13   EE      9
   12   18   SS     -2
   12   18   SE    -12
   12   18   ES     10
   12   18   EE     12
   13   14   SS     -3
   13   14   SE      4
   13   14   ES      5
   13   14   EE     -3
   13   20   SS      6
   13   20   SE     11
   13   20   ES     -9
   13   20   EE     10
   14   16   SS     -2
   14   16   SE     11
   14   16   ES    -12
   14   16   EE      4
   15   18   SS      6
   15   18   SE     -8
   15   18   ES      8
   15   18   EE     -4
   15   20   SS     -3
   15   20   SE      1
   15   20   ES     10
   15   20   EE     -3
   16   21   SS    -11
   16   21   SE     -5
   16   21   ES     -2
   16   21   EE    -12
   17   21   SS      2
   17   21   SE      1
   17   21   ES      7
   17   21   EE     -1
   18   19   SS     -1
   18   19   SE     -1
   18   19   ES      7
   18   19   EE     10
   18   21   SS     12
   18   21   SE     -6
   18   21   ES     -1
   18   21   EE     -2
************************************************************************
